sat
(
(define-fun S () String "aa")
(define-fun N () String "")
(define-fun J () String "")
(define-fun R () String "")
(define-fun K () String "")
(define-fun I () String "")
(define-fun U () String "")
(define-fun G () String "aa")
(define-fun F () String "")
(define-fun L () String "")
)
